
Gurobi 7.5.2 (linux64, Python) logging started Mon Dec 25 17:19:58 2017

Academic license - for non-commercial use only

Gurobi 7.5.2 (linux64, Python) logging started Tue Dec 26 10:44:32 2017

Academic license - for non-commercial use only

Gurobi 7.5.2 (linux64, Python) logging started Tue Dec 26 10:44:32 2017

Academic license - for non-commercial use only

Gurobi 7.5.2 (linux64, Python) logging started Tue Dec 26 10:44:32 2017

Academic license - for non-commercial use only

Gurobi 7.5.2 (linux64, Python) logging started Tue Dec 26 10:44:35 2017

Academic license - for non-commercial use only

Gurobi 7.5.2 (linux64, Python) logging started Tue Dec 26 10:44:36 2017

Academic license - for non-commercial use only

Gurobi 7.5.2 (linux64, Python) logging started Tue Dec 26 10:44:58 2017

Academic license - for non-commercial use only

Gurobi 7.5.2 (linux64, Python) logging started Tue Dec 26 10:45:07 2017

Academic license - for non-commercial use only

Gurobi 7.5.2 (linux64, Python) logging started Tue Dec 26 10:45:08 2017

Academic license - for non-commercial use only

Gurobi 7.5.2 (linux64, Python) logging started Tue Dec 26 10:45:09 2017

Academic license - for non-commercial use only

Gurobi 7.5.2 (linux64, Python) logging started Tue Dec 26 10:45:38 2017

Academic license - for non-commercial use only

Gurobi 7.5.2 (linux64, Python) logging started Tue Dec 26 10:46:06 2017

Academic license - for non-commercial use only

Gurobi 7.5.2 (linux64, Python) logging started Tue Dec 26 10:46:14 2017

Academic license - for non-commercial use only

Gurobi 7.5.2 (linux64, Python) logging started Tue Dec 26 10:46:30 2017

Academic license - for non-commercial use only

Gurobi 7.5.2 (linux64, Python) logging started Tue Dec 26 10:46:31 2017

Academic license - for non-commercial use only

Gurobi 7.5.2 (linux64, Python) logging started Tue Dec 26 10:46:36 2017

Academic license - for non-commercial use only

Gurobi 7.5.2 (linux64, Python) logging started Tue Dec 26 10:53:54 2017

Academic license - for non-commercial use only

Gurobi 7.5.2 (linux64, Python) logging started Tue Dec 26 10:53:54 2017

Academic license - for non-commercial use only

Gurobi 7.5.2 (linux64, Python) logging started Tue Dec 26 10:53:55 2017

Academic license - for non-commercial use only

Gurobi 7.5.2 (linux64, Python) logging started Tue Dec 26 10:53:57 2017

Academic license - for non-commercial use only

Gurobi 7.5.2 (linux64, Python) logging started Tue Dec 26 10:54:23 2017

Academic license - for non-commercial use only

Gurobi 7.5.2 (linux64, Python) logging started Tue Dec 26 10:54:30 2017

Academic license - for non-commercial use only

Gurobi 7.5.2 (linux64, Python) logging started Tue Dec 26 10:54:37 2017

Academic license - for non-commercial use only

Gurobi 7.5.2 (linux64, Python) logging started Tue Dec 26 10:55:05 2017

Academic license - for non-commercial use only

Gurobi 7.5.2 (linux64, Python) logging started Tue Dec 26 10:55:36 2017

Academic license - for non-commercial use only

Gurobi 7.5.2 (linux64, Python) logging started Tue Dec 26 10:55:39 2017

Academic license - for non-commercial use only

Gurobi 7.5.2 (linux64, Python) logging started Tue Dec 26 10:56:00 2017

Academic license - for non-commercial use only

Gurobi 7.5.2 (linux64, Python) logging started Tue Dec 26 10:56:16 2017

Academic license - for non-commercial use only

Gurobi 7.5.2 (linux64, Python) logging started Tue Dec 26 11:00:10 2017

Academic license - for non-commercial use only

Gurobi 7.5.2 (linux64, Python) logging started Tue Dec 26 11:00:10 2017

Academic license - for non-commercial use only

Gurobi 7.5.2 (linux64, Python) logging started Tue Dec 26 11:00:10 2017

Academic license - for non-commercial use only

Gurobi 7.5.2 (linux64, Python) logging started Tue Dec 26 11:00:11 2017

Academic license - for non-commercial use only

Gurobi 7.5.2 (linux64, Python) logging started Tue Dec 26 11:00:15 2017

Academic license - for non-commercial use only

Gurobi 7.5.2 (linux64, Python) logging started Tue Dec 26 11:00:37 2017

Academic license - for non-commercial use only

Gurobi 7.5.2 (linux64, Python) logging started Tue Dec 26 11:00:44 2017

Academic license - for non-commercial use only

Gurobi 7.5.2 (linux64, Python) logging started Tue Dec 26 11:00:45 2017

Academic license - for non-commercial use only

Gurobi 7.5.2 (linux64, Python) logging started Tue Dec 26 11:00:51 2017

Academic license - for non-commercial use only

Gurobi 7.5.2 (linux64, Python) logging started Tue Dec 26 11:01:20 2017

Academic license - for non-commercial use only

Gurobi 7.5.2 (linux64, Python) logging started Tue Dec 26 11:01:46 2017

Academic license - for non-commercial use only

Gurobi 7.5.2 (linux64, Python) logging started Tue Dec 26 11:01:49 2017

Academic license - for non-commercial use only

Gurobi 7.5.2 (linux64, Python) logging started Tue Dec 26 11:02:03 2017

Academic license - for non-commercial use only

Gurobi 7.5.2 (linux64, Python) logging started Tue Dec 26 11:02:13 2017

Academic license - for non-commercial use only

Gurobi 7.5.2 (linux64, Python) logging started Tue Dec 26 11:02:28 2017

Academic license - for non-commercial use only

Gurobi 7.5.2 (linux64, Python) logging started Tue Dec 26 11:02:49 2017

Academic license - for non-commercial use only

Gurobi 7.5.2 (linux64, Python) logging started Tue Dec 26 11:02:56 2017

Academic license - for non-commercial use only

Gurobi 7.5.2 (linux64, Python) logging started Tue Dec 26 11:02:56 2017

Academic license - for non-commercial use only

Gurobi 7.5.2 (linux64, Python) logging started Tue Dec 26 11:03:02 2017

Academic license - for non-commercial use only

Gurobi 7.5.2 (linux64, Python) logging started Tue Dec 26 11:04:09 2017

Academic license - for non-commercial use only

Gurobi 7.5.2 (linux64, Python) logging started Tue Dec 26 11:04:10 2017

Academic license - for non-commercial use only

Gurobi 7.5.2 (linux64, Python) logging started Tue Dec 26 11:06:26 2017

Academic license - for non-commercial use only

Gurobi 7.5.2 (linux64, Python) logging started Tue Dec 26 11:08:56 2017

Academic license - for non-commercial use only

Gurobi 7.5.2 (linux64, Python) logging started Tue Dec 26 11:12:23 2017

Academic license - for non-commercial use only

Gurobi 7.5.2 (linux64, Python) logging started Tue Dec 26 11:15:29 2017

Academic license - for non-commercial use only

Gurobi 7.5.2 (linux64, Python) logging started Tue Dec 26 11:16:57 2017

Academic license - for non-commercial use only

Gurobi 7.5.2 (linux64, Python) logging started Tue Dec 26 11:18:49 2017

Academic license - for non-commercial use only

Gurobi 7.5.2 (linux64, Python) logging started Tue Dec 26 11:22:31 2017

Academic license - for non-commercial use only

Gurobi 7.5.2 (linux64, Python) logging started Tue Dec 26 11:22:50 2017

Academic license - for non-commercial use only

Gurobi 7.5.2 (linux64, Python) logging started Tue Dec 26 11:24:29 2017

Academic license - for non-commercial use only

Gurobi 7.5.2 (linux64, Python) logging started Tue Dec 26 11:26:26 2017

Academic license - for non-commercial use only

Gurobi 7.5.2 (linux64, Python) logging started Tue Dec 26 11:29:36 2017

Academic license - for non-commercial use only

Gurobi 7.5.2 (linux64, Python) logging started Tue Dec 26 11:42:32 2017

Academic license - for non-commercial use only

Gurobi 7.5.2 (linux64, Python) logging started Tue Dec 26 11:44:49 2017

Academic license - for non-commercial use only

Gurobi 7.5.2 (linux64, Python) logging started Tue Dec 26 11:49:01 2017

Academic license - for non-commercial use only

Gurobi 7.5.2 (linux64, Python) logging started Tue Dec 26 12:01:20 2017

Academic license - for non-commercial use only

Gurobi 7.5.2 (linux64, Python) logging started Tue Dec 26 12:02:41 2017

Academic license - for non-commercial use only

Gurobi 7.5.2 (linux64, Python) logging started Tue Dec 26 12:04:31 2017

Academic license - for non-commercial use only

Gurobi 7.5.2 (linux64, Python) logging started Tue Dec 26 12:04:59 2017

Academic license - for non-commercial use only

Gurobi 7.5.2 (linux64, Python) logging started Tue Dec 26 12:08:58 2017

Academic license - for non-commercial use only

Gurobi 7.5.2 (linux64, Python) logging started Tue Dec 26 12:12:32 2017

Academic license - for non-commercial use only

Gurobi 7.5.2 (linux64, Python) logging started Tue Dec 26 12:14:43 2017

Academic license - for non-commercial use only

Gurobi 7.5.2 (linux64, Python) logging started Tue Dec 26 12:18:01 2017

Academic license - for non-commercial use only

Gurobi 7.5.2 (linux64, Python) logging started Tue Dec 26 12:19:05 2017

Academic license - for non-commercial use only

Gurobi 7.5.2 (linux64, Python) logging started Tue Dec 26 12:21:44 2017

Academic license - for non-commercial use only

Gurobi 7.5.2 (linux64, Python) logging started Tue Dec 26 12:23:18 2017

Academic license - for non-commercial use only

Gurobi 7.5.2 (linux64, Python) logging started Tue Dec 26 12:36:05 2017

Academic license - for non-commercial use only

Gurobi 7.5.2 (linux64, Python) logging started Tue Dec 26 12:36:54 2017

Academic license - for non-commercial use only

Gurobi 7.5.2 (linux64, Python) logging started Tue Dec 26 12:50:57 2017

Academic license - for non-commercial use only

Gurobi 7.5.2 (linux64, Python) logging started Tue Dec 26 13:07:19 2017

Academic license - for non-commercial use only

Gurobi 7.5.2 (linux64, Python) logging started Tue Dec 26 13:20:12 2017

Academic license - for non-commercial use only

Gurobi 7.5.2 (linux64, Python) logging started Tue Dec 26 14:19:46 2017

Academic license - for non-commercial use only

Gurobi 7.5.2 (linux64, Python) logging started Tue Dec 26 15:26:48 2017

Academic license - for non-commercial use only

Gurobi 7.5.2 (linux64, Python) logging started Tue Dec 26 15:43:22 2017

Academic license - for non-commercial use only

Gurobi 7.5.2 (linux64, Python) logging started Tue Dec 26 16:21:48 2017

Academic license - for non-commercial use only

Gurobi 7.5.2 (linux64, Python) logging started Tue Dec 26 16:34:03 2017

Academic license - for non-commercial use only

Gurobi 7.5.2 (linux64, Python) logging started Tue Dec 26 16:52:16 2017

Academic license - for non-commercial use only

Gurobi 7.5.2 (linux64, Python) logging started Tue Dec 26 20:19:28 2017

Academic license - for non-commercial use only

Gurobi 7.5.2 (linux64, Python) logging started Tue Dec 26 22:17:09 2017

Academic license - for non-commercial use only

Gurobi 7.5.2 (linux64, Python) logging started Tue Dec 26 23:02:39 2017

Academic license - for non-commercial use only

Gurobi 7.5.2 (linux64, Python) logging started Tue Dec 26 23:08:25 2017

Academic license - for non-commercial use only

Gurobi 7.5.2 (linux64, Python) logging started Tue Dec 26 23:57:46 2017

Academic license - for non-commercial use only

Gurobi 7.5.2 (linux64, Python) logging started Wed Dec 27 00:00:21 2017

Academic license - for non-commercial use only

Gurobi 7.5.2 (linux64, Python) logging started Wed Dec 27 00:10:52 2017

Academic license - for non-commercial use only

Gurobi 7.5.2 (linux64, Python) logging started Wed Dec 27 00:30:31 2017

Academic license - for non-commercial use only

Gurobi 7.5.2 (linux64, Python) logging started Wed Dec 27 01:02:10 2017

Academic license - for non-commercial use only

Gurobi 7.5.2 (linux64, Python) logging started Wed Dec 27 01:07:31 2017

Academic license - for non-commercial use only

Gurobi 7.5.2 (linux64, Python) logging started Wed Dec 27 01:13:45 2017

Academic license - for non-commercial use only

Gurobi 7.5.2 (linux64, Python) logging started Wed Dec 27 01:33:13 2017

Academic license - for non-commercial use only

Gurobi 7.5.2 (linux64, Python) logging started Wed Dec 27 02:27:45 2017

Academic license - for non-commercial use only

Gurobi 7.5.2 (linux64, Python) logging started Wed Dec 27 02:38:28 2017

Academic license - for non-commercial use only

Gurobi 7.5.2 (linux64, Python) logging started Wed Dec 27 03:03:38 2017

Academic license - for non-commercial use only

Gurobi 7.5.2 (linux64, Python) logging started Wed Dec 27 03:46:29 2017

Academic license - for non-commercial use only

Gurobi 7.5.2 (linux64, Python) logging started Wed Dec 27 05:11:09 2017

Academic license - for non-commercial use only

Gurobi 7.5.2 (linux64, Python) logging started Wed Dec 27 06:01:57 2017

Academic license - for non-commercial use only

Gurobi 7.5.2 (linux64, Python) logging started Wed Dec 27 06:10:38 2017

Academic license - for non-commercial use only

Gurobi 7.5.2 (linux64, Python) logging started Wed Dec 27 06:20:36 2017

Academic license - for non-commercial use only

Gurobi 7.5.2 (linux64, Python) logging started Wed Dec 27 06:34:36 2017

Academic license - for non-commercial use only

Gurobi 7.5.2 (linux64, Python) logging started Wed Dec 27 06:37:58 2017

Academic license - for non-commercial use only

Gurobi 7.5.2 (linux64, Python) logging started Wed Dec 27 06:52:56 2017

Academic license - for non-commercial use only

Gurobi 7.5.2 (linux64, Python) logging started Wed Dec 27 07:16:00 2017

Academic license - for non-commercial use only

Gurobi 7.5.2 (linux64, Python) logging started Wed Dec 27 07:42:06 2017

Academic license - for non-commercial use only

Gurobi 7.5.2 (linux64, Python) logging started Wed Dec 27 08:05:04 2017

Academic license - for non-commercial use only

Gurobi 7.5.2 (linux64, Python) logging started Wed Dec 27 08:12:16 2017

Academic license - for non-commercial use only

Gurobi 7.5.2 (linux64, Python) logging started Wed Dec 27 08:22:55 2017

Academic license - for non-commercial use only

Gurobi 7.5.2 (linux64, Python) logging started Wed Dec 27 08:43:15 2017

Academic license - for non-commercial use only

Gurobi 7.5.2 (linux64, Python) logging started Wed Dec 27 08:58:42 2017

Academic license - for non-commercial use only

Gurobi 7.5.2 (linux64, Python) logging started Wed Dec 27 10:06:10 2017

Academic license - for non-commercial use only

Gurobi 7.5.2 (linux64, Python) logging started Wed Dec 27 16:24:36 2017

Academic license - for non-commercial use only

Gurobi 7.5.2 (linux64, Python) logging started Wed Dec 27 17:37:08 2017

Academic license - for non-commercial use only

Gurobi 7.5.2 (linux64, Python) logging started Wed Dec 27 21:10:08 2017

Academic license - for non-commercial use only

Gurobi 7.5.2 (linux64, Python) logging started Thu Dec 28 03:57:41 2017

Academic license - for non-commercial use only

Gurobi 7.5.2 (linux64, Python) logging started Thu Dec 28 04:13:15 2017

Academic license - for non-commercial use only

Gurobi 7.5.2 (linux64, Python) logging started Thu Dec 28 04:31:21 2017

Academic license - for non-commercial use only

Gurobi 7.5.2 (linux64, Python) logging started Thu Dec 28 18:03:19 2017

Academic license - for non-commercial use only

Gurobi 7.5.2 (linux64, Python) logging started Fri Dec 29 01:22:15 2017

Academic license - for non-commercial use only

Gurobi 7.5.2 (linux64, Python) logging started Fri Dec 29 07:51:29 2017

Academic license - for non-commercial use only

Gurobi 7.5.2 (linux64, Python) logging started Fri Dec 29 07:58:44 2017

Academic license - for non-commercial use only

Gurobi 7.5.2 (linux64, Python) logging started Fri Dec 29 08:12:22 2017

Academic license - for non-commercial use only

Gurobi 7.5.2 (linux64, Python) logging started Fri Dec 29 09:37:09 2017

Academic license - for non-commercial use only

Gurobi 7.5.2 (linux64, Python) logging started Fri Dec 29 17:54:45 2017

Academic license - for non-commercial use only

Gurobi 7.5.2 (linux64, Python) logging started Fri Dec 29 18:04:32 2017

Academic license - for non-commercial use only

Gurobi 7.5.2 (linux64, Python) logging started Fri Dec 29 18:14:47 2017

Academic license - for non-commercial use only

Gurobi 7.5.2 (linux64, Python) logging started Fri Dec 29 20:52:21 2017

Academic license - for non-commercial use only

Gurobi 7.5.2 (linux64, Python) logging started Sat Dec 30 11:20:42 2017

Academic license - for non-commercial use only

Gurobi 7.5.2 (linux64, Python) logging started Sat Dec 30 11:38:20 2017

Academic license - for non-commercial use only

Gurobi 7.5.2 (linux64, Python) logging started Sat Dec 30 12:01:34 2017

Academic license - for non-commercial use only

Gurobi 7.5.2 (linux64, Python) logging started Sun Dec 31 16:49:46 2017

Academic license - for non-commercial use only

Gurobi 7.5.2 (linux64, Python) logging started Sun Dec 31 18:40:35 2017

Academic license - for non-commercial use only

Gurobi 7.5.2 (linux64, Python) logging started Sun Dec 31 21:47:31 2017

Academic license - for non-commercial use only

Gurobi 7.5.2 (linux64, Python) logging started Mon Jan  1 08:00:41 2018

Academic license - for non-commercial use only

Gurobi 7.5.2 (linux64, Python) logging started Mon Jan  1 16:26:12 2018

Academic license - for non-commercial use only

Gurobi 7.5.2 (linux64, Python) logging started Tue Jan  2 05:10:37 2018

Academic license - for non-commercial use only

Gurobi 7.5.2 (linux64, Python) logging started Tue Jan  2 05:43:30 2018

Academic license - for non-commercial use only

Gurobi 7.5.2 (linux64, Python) logging started Tue Jan  2 06:53:27 2018

Academic license - for non-commercial use only

Gurobi 7.5.2 (linux64, Python) logging started Tue Jan  2 21:40:42 2018

Academic license - for non-commercial use only

Gurobi 7.5.2 (linux64, Python) logging started Tue Jan  2 22:32:26 2018

Academic license - for non-commercial use only

Gurobi 7.5.2 (linux64, Python) logging started Tue Jan  2 23:41:32 2018

Academic license - for non-commercial use only

Gurobi 7.5.2 (linux64, Python) logging started Wed Jan  3 00:09:25 2018

Academic license - for non-commercial use only

Gurobi 7.5.2 (linux64, Python) logging started Wed Jan  3 01:39:23 2018

Academic license - for non-commercial use only

Gurobi 7.5.2 (linux64, Python) logging started Wed Jan  3 03:00:54 2018

Academic license - for non-commercial use only

Gurobi 7.5.2 (linux64, Python) logging started Wed Jan  3 17:19:00 2018

Academic license - for non-commercial use only

Gurobi 7.5.2 (linux64, Python) logging started Wed Jan  3 22:29:27 2018

Academic license - for non-commercial use only

Gurobi 7.5.2 (linux64, Python) logging started Wed Jan  3 22:36:40 2018

Academic license - for non-commercial use only

Gurobi 7.5.2 (linux64, Python) logging started Wed Jan  3 22:46:31 2018

Academic license - for non-commercial use only

Gurobi 7.5.2 (linux64, Python) logging started Thu Jan  4 04:20:06 2018

Academic license - for non-commercial use only

Gurobi 7.5.2 (linux64, Python) logging started Fri Jan  5 07:45:56 2018

Academic license - for non-commercial use only

Gurobi 7.5.2 (linux64, Python) logging started Fri Jan  5 13:49:18 2018

Academic license - for non-commercial use only

Gurobi 7.5.2 (linux64, Python) logging started Fri Jan  5 15:31:29 2018

Academic license - for non-commercial use only

Gurobi 7.5.2 (linux64, Python) logging started Fri Jan  5 16:35:28 2018

Academic license - for non-commercial use only

Gurobi 7.5.2 (linux64, Python) logging started Sat Jan  6 08:25:35 2018

Academic license - for non-commercial use only

Gurobi 7.5.2 (linux64, Python) logging started Sun Jan  7 10:23:14 2018

Academic license - for non-commercial use only

Gurobi 7.5.2 (linux64, Python) logging started Sun Jan  7 11:08:40 2018

Academic license - for non-commercial use only

Gurobi 7.5.2 (linux64, Python) logging started Sun Jan  7 12:32:23 2018

Academic license - for non-commercial use only

Gurobi 7.5.2 (linux64, Python) logging started Thu Jan 25 16:29:21 2018

Academic license - for non-commercial use only

Gurobi 7.5.2 (linux64, Python) logging started Thu Jan 25 16:31:05 2018

Academic license - for non-commercial use only

Gurobi 7.5.2 (linux64, Python) logging started Thu Jan 25 16:37:06 2018

Academic license - for non-commercial use only

Gurobi 7.5.2 (linux64, Python) logging started Thu Jan 25 16:40:41 2018

Academic license - for non-commercial use only

Gurobi 7.5.2 (linux64, Python) logging started Thu Jan 25 16:59:43 2018

Academic license - for non-commercial use only

Gurobi 7.5.2 (linux64, Python) logging started Thu Jan 25 18:06:32 2018

Academic license - for non-commercial use only

Gurobi 7.5.2 (linux64, Python) logging started Thu Jan 25 18:10:26 2018

Academic license - for non-commercial use only

Gurobi 7.5.2 (linux64, Python) logging started Thu Jan 25 20:18:18 2018

Academic license - for non-commercial use only

Gurobi 7.5.2 (linux64, Python) logging started Thu Jan 25 23:46:08 2018

Academic license - for non-commercial use only

Gurobi 7.5.2 (linux64, Python) logging started Fri Jan 26 15:13:51 2018

Academic license - for non-commercial use only

Gurobi 7.5.2 (linux64, Python) logging started Fri Jan 26 15:15:34 2018

Academic license - for non-commercial use only

Gurobi 7.5.2 (linux64, Python) logging started Fri Jan 26 15:22:30 2018

Academic license - for non-commercial use only

Gurobi 7.5.2 (linux64, Python) logging started Fri Jan 26 15:29:21 2018

Academic license - for non-commercial use only

Gurobi 7.5.2 (linux64, Python) logging started Fri Jan 26 16:05:40 2018

Academic license - for non-commercial use only

Gurobi 7.5.2 (linux64, Python) logging started Fri Jan 26 18:07:10 2018

Academic license - for non-commercial use only

Gurobi 7.5.2 (linux64, Python) logging started Fri Jan 26 18:11:05 2018

Academic license - for non-commercial use only

Gurobi 7.5.2 (linux64, Python) logging started Fri Jan 26 21:25:39 2018

Academic license - for non-commercial use only

Gurobi 7.5.2 (linux64, Python) logging started Sat Jan 27 04:09:30 2018

Academic license - for non-commercial use only
